c SAT Generator for power-law distributed variable frequencies
c -g u -v 20 -c 91 -k 3 -p 2.750000 -b 3.200000 -f /home/schmidt/Devel/ni-kop-sat/data/ensemble/ruf20-91/ruf20-91-683 -u 1 -U 1 -s 2282898947
p cnf 20 91
10 14 17 0
1 -16 17 0
-5 -12 16 0
-2 6 10 0
-1 -7 8 0
1 -3 -10 0
1 7 20 0
-5 15 18 0
-10 -11 -12 0
2 9 13 0
7 12 19 0
6 10 11 0
1 12 -20 0
1 -12 18 0
-3 -13 -20 0
5 8 16 0
-6 -7 -17 0
3 7 13 0
12 13 -16 0
-4 -9 13 0
15 17 -20 0
5 7 -9 0
-8 17 18 0
7 -9 13 0
-6 -12 -20 0
1 13 -18 0
3 11 16 0
10 12 14 0
-3 17 -20 0
-10 -13 -19 0
1 11 -20 0
1 2 19 0
-5 12 20 0
3 5 17 0
8 -12 16 0
-3 -10 18 0
4 7 -19 0
10 -16 -20 0
-3 5 9 0
1 -2 13 0
7 -10 15 0
-2 -5 6 0
12 13 16 0
11 -14 16 0
11 19 -20 0
-8 -11 -15 0
-10 -11 -14 0
4 -5 14 0
-6 -7 -13 0
4 -6 -20 0
-13 -14 16 0
-1 -5 14 0
4 -16 -20 0
-8 -11 -13 0
-6 10 -12 0
2 -16 17 0
8 -13 -15 0
-6 -17 -18 0
-6 9 18 0
1 -4 18 0
-4 5 14 0
2 -16 -18 0
5 14 16 0
1 5 -15 0
-1 9 -20 0
-3 11 17 0
-3 11 -19 0
-4 -9 -17 0
-4 -14 -20 0
-10 -17 20 0
8 -18 -19 0
2 8 -9 0
-10 16 19 0
2 14 -20 0
3 10 -20 0
1 -2 3 0
-1 2 4 0
-5 8 13 0
3 -13 14 0
-9 -11 -18 0
-2 6 7 0
-6 10 -13 0
-5 8 10 0
-3 7 19 0
-2 13 18 0
-7 14 20 0
-4 -6 17 0
2 -4 -5 0
-4 -12 -17 0
-2 -7 8 0
1 7 -13 0
